p cnf 18 42
a 3 0
e 1 2 4 5 6 7 8 9 10 11 12 13 14 15 16 17 18 0
1 2 -3 0
-1 -2 -3 0
1 -2 3 0
-1 2 3 0
-6 -1 0
-6 -5 0
1 5 6 0
-4 -6 -7 0
4 6 -7 0
-4 6 7 0
4 -6 7 0
8 6 -9 0
-8 -6 -9 0
8 -6 9 0
-8 6 9 0
7 -9 -10 0
-7 9 -10 0
7 9 10 0
-7 -9 10 0
-3 -10 -11 0
3 10 -11 0
-3 10 11 0
3 -10 11 0
-13 14 -15 0
13 -14 -15 0
-13 -14 15 0
13 14 15 0
-16 -13 0
-16 15 0
13 -15 16 0
17 12 0
17 -16 0
-12 16 -17 0
11 -17 -18 0
-11 17 -18 0
11 17 18 0
-11 -17 18 0
3 12 0
-15 6 8 11 -9 14 0
-4 -8 16 11 0
4 1 -16 0
18 0
